language Essence 1.3

letting bot_end be [637, 523, 629, 8, 181, 524, 9, 127, 643, 638, 11, 639, 536, 614, 625; int(1..15)]
letting bot_start be [132, 22, 147, 550, 617, 83, 432, 580, 252, 188, 456, 202, 85, 159, 106; int(1..15)]
letting buffer_col be 2
letting buffer_row be 2
letting corridor_size be 1
letting n_shelves_col be 1
letting n_shelves_row be 44
letting shelf_col_size be 2
letting shelf_row_size be 1
